NAME : 0
COMMENT : CVRP Instance
TYPE : CVRP
DIMENSION : 502
EDGE_WEIGHT_TYPE : EUC_2D
CAPACITY : 13
NODE_COORD_SECTION
1	0.0	0.0
2	159.0	917.0
3	635.0	200.0
4	278.0	907.0
5	667.0	141.0
6	119.0	954.0
7	29.0	448.0
8	590.0	87.0
9	375.0	990.0
10	511.0	374.0
11	298.0	957.0
12	107.0	911.0
13	323.0	766.0
14	161.0	892.0
15	151.0	912.0
16	438.0	1000.0
17	284.0	933.0
18	724.0	191.0
19	286.0	940.0
20	144.0	785.0
21	672.0	157.0
22	759.0	176.0
23	553.0	179.0
24	625.0	167.0
25	133.0	924.0
26	695.0	73.0
27	149.0	946.0
28	599.0	162.0
29	305.0	712.0
30	229.0	709.0
31	332.0	874.0
32	756.0	143.0
33	696.0	248.0
34	94.0	777.0
35	381.0	975.0
36	224.0	928.0
37	414.0	951.0
38	910.0	190.0
39	749.0	162.0
40	668.0	273.0
41	146.0	786.0
42	17.0	793.0
43	255.0	883.0
44	326.0	837.0
45	549.0	226.0
46	137.0	868.0
47	74.0	977.0
48	618.0	248.0
49	328.0	898.0
50	62.0	802.0
51	177.0	914.0
52	646.0	208.0
53	666.0	142.0
54	591.0	205.0
55	163.0	873.0
56	721.0	164.0
57	623.0	153.0
58	333.0	956.0
59	237.0	874.0
60	729.0	102.0
61	330.0	896.0
62	192.0	949.0
63	446.0	930.0
64	148.0	897.0
65	92.0	876.0
66	389.0	942.0
67	131.0	847.0
68	237.0	990.0
69	594.0	149.0
70	780.0	190.0
71	719.0	271.0
72	168.0	982.0
73	278.0	911.0
74	256.0	896.0
75	279.0	903.0
76	613.0	47.0
77	597.0	187.0
78	440.0	296.0
79	320.0	872.0
80	261.0	925.0
81	301.0	931.0
82	599.0	218.0
83	227.0	860.0
84	591.0	189.0
85	319.0	992.0
86	617.0	172.0
87	118.0	839.0
88	117.0	909.0
89	578.0	300.0
90	503.0	966.0
91	232.0	907.0
92	34.0	955.0
93	191.0	816.0
94	273.0	42.0
95	171.0	877.0
96	132.0	920.0
97	113.0	906.0
98	581.0	125.0
99	138.0	910.0
100	149.0	870.0
101	622.0	303.0
102	278.0	845.0
103	587.0	60.0
104	234.0	818.0
105	310.0	832.0
106	568.0	227.0
107	711.0	167.0
108	728.0	251.0
109	185.0	937.0
110	110.0	840.0
111	254.0	945.0
112	140.0	937.0
113	238.0	919.0
114	9.0	875.0
115	97.0	799.0
116	804.0	100.0
117	243.0	927.0
118	310.0	938.0
119	171.0	826.0
120	677.0	213.0
121	708.0	166.0
122	151.0	931.0
123	262.0	920.0
124	121.0	769.0
125	149.0	660.0
126	199.0	749.0
127	78.0	738.0
128	323.0	963.0
129	63.0	799.0
130	233.0	931.0
131	693.0	170.0
132	673.0	156.0
133	213.0	980.0
134	620.0	191.0
135	125.0	946.0
136	748.0	117.0
137	250.0	926.0
138	661.0	327.0
139	147.0	831.0
140	181.0	923.0
141	548.0	235.0
142	682.0	157.0
143	263.0	898.0
144	469.0	339.0
145	144.0	915.0
146	569.0	234.0
147	577.0	450.0
148	598.0	231.0
149	693.0	229.0
150	227.0	952.0
151	211.0	643.0
152	12.0	942.0
153	288.0	969.0
154	734.0	312.0
155	641.0	37.0
156	241.0	761.0
157	618.0	206.0
158	156.0	915.0
159	712.0	391.0
160	74.0	787.0
161	705.0	109.0
162	240.0	902.0
163	603.0	338.0
164	572.0	363.0
165	620.0	204.0
166	272.0	925.0
167	652.0	231.0
168	585.0	299.0
169	107.0	789.0
170	617.0	223.0
171	242.0	907.0
172	601.0	240.0
173	453.0	388.0
174	301.0	889.0
175	246.0	818.0
176	356.0	916.0
177	681.0	238.0
178	607.0	119.0
179	351.0	970.0
180	159.0	896.0
181	582.0	156.0
182	472.0	257.0
183	143.0	878.0
184	113.0	926.0
185	236.0	888.0
186	738.0	73.0
187	677.0	194.0
188	716.0	196.0
189	532.0	304.0
190	334.0	772.0
191	514.0	326.0
192	220.0	712.0
193	631.0	121.0
194	531.0	262.0
195	707.0	228.0
196	617.0	160.0
197	624.0	151.0
198	609.0	191.0
199	599.0	228.0
200	210.0	727.0
201	481.0	78.0
202	239.0	749.0
203	650.0	373.0
204	550.0	138.0
205	393.0	807.0
206	195.0	806.0
207	81.0	873.0
208	375.0	829.0
209	506.0	104.0
210	104.0	898.0
211	674.0	225.0
212	271.0	910.0
213	222.0	806.0
214	655.0	37.0
215	324.0	847.0
216	622.0	54.0
217	399.0	213.0
218	101.0	875.0
219	668.0	402.0
220	30.0	895.0
221	241.0	842.0
222	627.0	176.0
223	869.0	235.0
224	812.0	223.0
225	561.0	286.0
226	171.0	973.0
227	582.0	242.0
228	192.0	858.0
229	651.0	183.0
230	175.0	840.0
231	365.0	946.0
232	215.0	770.0
233	125.0	924.0
234	296.0	984.0
235	682.0	174.0
236	165.0	846.0
237	136.0	982.0
238	397.0	821.0
239	185.0	807.0
240	236.0	972.0
241	278.0	948.0
242	338.0	880.0
243	759.0	215.0
244	498.0	51.0
245	177.0	962.0
246	253.0	878.0
247	190.0	865.0
248	612.0	266.0
249	204.0	902.0
250	169.0	877.0
251	101.0	877.0
252	586.0	247.0
253	242.0	885.0
254	235.0	775.0
255	585.0	201.0
256	592.0	164.0
257	461.0	897.0
258	652.0	246.0
259	267.0	899.0
260	204.0	860.0
261	298.0	852.0
262	156.0	936.0
263	135.0	977.0
264	268.0	927.0
265	303.0	918.0
266	110.0	877.0
267	625.0	248.0
268	265.0	857.0
269	592.0	325.0
270	715.0	115.0
271	565.0	376.0
272	306.0	759.0
273	208.0	961.0
274	120.0	892.0
275	115.0	963.0
276	33.0	726.0
277	750.0	227.0
278	432.0	927.0
279	97.0	802.0
280	552.0	303.0
281	257.0	846.0
282	191.0	873.0
283	595.0	189.0
284	190.0	815.0
285	175.0	949.0
286	359.0	932.0
287	458.0	246.0
288	175.0	872.0
289	486.0	173.0
290	320.0	818.0
291	207.0	945.0
292	32.0	894.0
293	183.0	837.0
294	76.0	937.0
295	154.0	972.0
296	215.0	886.0
297	647.0	225.0
298	90.0	963.0
299	635.0	199.0
300	310.0	860.0
301	757.0	281.0
302	528.0	222.0
303	187.0	947.0
304	568.0	144.0
305	179.0	893.0
306	429.0	939.0
307	323.0	841.0
308	527.0	77.0
309	116.0	883.0
310	792.0	274.0
311	611.0	282.0
312	170.0	927.0
313	776.0	408.0
314	136.0	925.0
315	161.0	968.0
316	575.0	237.0
317	283.0	911.0
318	684.0	269.0
319	303.0	957.0
320	98.0	843.0
321	608.0	145.0
322	136.0	934.0
323	412.0	885.0
324	435.0	879.0
325	421.0	265.0
326	189.0	916.0
327	296.0	925.0
328	394.0	969.0
329	161.0	856.0
330	222.0	947.0
331	189.0	816.0
332	470.0	256.0
333	239.0	875.0
334	171.0	888.0
335	433.0	776.0
336	434.0	170.0
337	205.0	941.0
338	55.0	872.0
339	354.0	803.0
340	612.0	189.0
341	135.0	857.0
342	664.0	215.0
343	145.0	863.0
344	740.0	71.0
345	102.0	946.0
346	592.0	250.0
347	519.0	99.0
348	214.0	884.0
349	402.0	983.0
350	593.0	174.0
351	118.0	922.0
352	738.0	121.0
353	41.0	948.0
354	350.0	705.0
355	544.0	124.0
356	196.0	681.0
357	160.0	889.0
358	159.0	858.0
359	654.0	195.0
360	782.0	275.0
361	328.0	864.0
362	605.0	668.0
363	241.0	885.0
364	740.0	404.0
365	266.0	914.0
366	717.0	180.0
367	458.0	81.0
368	684.0	230.0
369	301.0	860.0
370	180.0	920.0
371	301.0	865.0
372	294.0	964.0
373	383.0	912.0
374	559.0	143.0
375	747.0	383.0
376	433.0	966.0
377	563.0	258.0
378	827.0	145.0
379	294.0	784.0
380	147.0	707.0
381	173.0	944.0
382	298.0	915.0
383	175.0	923.0
384	333.0	919.0
385	280.0	869.0
386	596.0	219.0
387	614.0	286.0
388	104.0	861.0
389	279.0	771.0
390	188.0	938.0
391	100.0	840.0
392	117.0	866.0
393	722.0	126.0
394	215.0	853.0
395	276.0	893.0
396	444.0	296.0
397	547.0	286.0
398	213.0	803.0
399	86.0	990.0
400	173.0	947.0
401	672.0	173.0
402	130.0	983.0
403	360.0	987.0
404	718.0	192.0
405	66.0	817.0
406	657.0	97.0
407	33.0	914.0
408	649.0	414.0
409	680.0	208.0
410	623.0	266.0
411	678.0	101.0
412	270.0	864.0
413	620.0	232.0
414	335.0	935.0
415	451.0	57.0
416	295.0	987.0
417	101.0	738.0
418	359.0	881.0
419	158.0	934.0
420	182.0	919.0
421	717.0	177.0
422	653.0	54.0
423	683.0	139.0
424	381.0	928.0
425	277.0	962.0
426	645.0	238.0
427	608.0	267.0
428	625.0	217.0
429	565.0	76.0
430	523.0	188.0
431	519.0	855.0
432	165.0	947.0
433	305.0	922.0
434	406.0	294.0
435	125.0	702.0
436	227.0	858.0
437	774.0	36.0
438	611.0	204.0
439	107.0	703.0
440	209.0	979.0
441	557.0	175.0
442	80.0	903.0
443	172.0	890.0
444	203.0	984.0
445	665.0	200.0
446	230.0	892.0
447	138.0	914.0
448	270.0	872.0
449	702.0	198.0
450	737.0	258.0
451	150.0	975.0
452	666.0	196.0
453	174.0	804.0
454	266.0	959.0
455	142.0	936.0
456	142.0	976.0
457	79.0	750.0
458	208.0	836.0
459	439.0	240.0
460	438.0	339.0
461	841.0	230.0
462	289.0	910.0
463	191.0	888.0
464	309.0	861.0
465	242.0	958.0
466	408.0	932.0
467	243.0	954.0
468	616.0	200.0
469	729.0	281.0
470	642.0	230.0
471	707.0	106.0
472	395.0	678.0
473	134.0	820.0
474	514.0	197.0
475	547.0	236.0
476	660.0	98.0
477	0.0	923.0
478	190.0	870.0
479	302.0	673.0
480	50.0	967.0
481	79.0	930.0
482	628.0	254.0
483	3.0	965.0
484	159.0	988.0
485	613.0	252.0
486	229.0	833.0
487	343.0	877.0
488	255.0	772.0
489	626.0	246.0
490	332.0	921.0
491	214.0	861.0
492	200.0	882.0
493	117.0	872.0
494	119.0	964.0
495	370.0	865.0
496	632.0	243.0
497	304.0	893.0
498	52.0	899.0
499	434.0	232.0
500	288.0	773.0
501	301.0	905.0
502	284.0	799.0
DEMAND_SECTION
1	0
2	1
3	1
4	1
5	1
6	1
7	1
8	1
9	1
10	1
11	1
12	1
13	1
14	1
15	1
16	1
17	1
18	1
19	1
20	1
21	1
22	1
23	1
24	1
25	1
26	1
27	1
28	1
29	1
30	1
31	1
32	1
33	1
34	1
35	1
36	1
37	1
38	1
39	1
40	1
41	1
42	1
43	1
44	1
45	1
46	1
47	1
48	1
49	1
50	1
51	1
52	1
53	1
54	1
55	1
56	1
57	1
58	1
59	1
60	1
61	1
62	1
63	1
64	1
65	1
66	1
67	1
68	1
69	1
70	1
71	1
72	1
73	1
74	1
75	1
76	1
77	1
78	1
79	1
80	1
81	1
82	1
83	1
84	1
85	1
86	1
87	1
88	1
89	1
90	1
91	1
92	1
93	1
94	1
95	1
96	1
97	1
98	1
99	1
100	1
101	1
102	1
103	1
104	1
105	1
106	1
107	1
108	1
109	1
110	1
111	1
112	1
113	1
114	1
115	1
116	1
117	1
118	1
119	1
120	1
121	1
122	1
123	1
124	1
125	1
126	1
127	1
128	1
129	1
130	1
131	1
132	1
133	1
134	1
135	1
136	1
137	1
138	1
139	1
140	1
141	1
142	1
143	1
144	1
145	1
146	1
147	1
148	1
149	1
150	1
151	1
152	1
153	1
154	1
155	1
156	1
157	1
158	1
159	1
160	1
161	1
162	1
163	1
164	1
165	1
166	1
167	1
168	1
169	1
170	1
171	1
172	1
173	1
174	1
175	1
176	1
177	1
178	1
179	1
180	1
181	1
182	1
183	1
184	1
185	1
186	1
187	1
188	1
189	1
190	1
191	1
192	1
193	1
194	1
195	1
196	1
197	1
198	1
199	1
200	1
201	1
202	1
203	1
204	1
205	1
206	1
207	1
208	1
209	1
210	1
211	1
212	1
213	1
214	1
215	1
216	1
217	1
218	1
219	1
220	1
221	1
222	1
223	1
224	1
225	1
226	1
227	1
228	1
229	1
230	1
231	1
232	1
233	1
234	1
235	1
236	1
237	1
238	1
239	1
240	1
241	1
242	1
243	1
244	1
245	1
246	1
247	1
248	1
249	1
250	1
251	1
252	1
253	1
254	1
255	1
256	1
257	1
258	1
259	1
260	1
261	1
262	1
263	1
264	1
265	1
266	1
267	1
268	1
269	1
270	1
271	1
272	1
273	1
274	1
275	1
276	1
277	1
278	1
279	1
280	1
281	1
282	1
283	1
284	1
285	1
286	1
287	1
288	1
289	1
290	1
291	1
292	1
293	1
294	1
295	1
296	1
297	1
298	1
299	1
300	1
301	1
302	1
303	1
304	1
305	1
306	1
307	1
308	1
309	1
310	1
311	1
312	1
313	1
314	1
315	1
316	1
317	1
318	1
319	1
320	1
321	1
322	1
323	1
324	1
325	1
326	1
327	1
328	1
329	1
330	1
331	1
332	1
333	1
334	1
335	1
336	1
337	1
338	1
339	1
340	1
341	1
342	1
343	1
344	1
345	1
346	1
347	1
348	1
349	1
350	1
351	1
352	1
353	1
354	1
355	1
356	1
357	1
358	1
359	1
360	1
361	1
362	1
363	1
364	1
365	1
366	1
367	1
368	1
369	1
370	1
371	1
372	1
373	1
374	1
375	1
376	1
377	1
378	1
379	1
380	1
381	1
382	1
383	1
384	1
385	1
386	1
387	1
388	1
389	1
390	1
391	1
392	1
393	1
394	1
395	1
396	1
397	1
398	1
399	1
400	1
401	1
402	1
403	1
404	1
405	1
406	1
407	1
408	1
409	1
410	1
411	1
412	1
413	1
414	1
415	1
416	1
417	1
418	1
419	1
420	1
421	1
422	1
423	1
424	1
425	1
426	1
427	1
428	1
429	1
430	1
431	1
432	1
433	1
434	1
435	1
436	1
437	1
438	1
439	1
440	1
441	1
442	1
443	1
444	1
445	1
446	1
447	1
448	1
449	1
450	1
451	1
452	1
453	1
454	1
455	1
456	1
457	1
458	1
459	1
460	1
461	1
462	1
463	1
464	1
465	1
466	1
467	1
468	1
469	1
470	1
471	1
472	1
473	1
474	1
475	1
476	1
477	1
478	1
479	1
480	1
481	1
482	1
483	1
484	1
485	1
486	1
487	1
488	1
489	1
490	1
491	1
492	1
493	1
494	1
495	1
496	1
497	1
498	1
499	1
500	1
501	1
502	1
DEPOT_SECTION
1
-1
EOF
